NAME : amtsp.-92200.tour
COMMENT : Length = -92200
COMMENT : Found by LKH [Keld Helsgaun] Thu Apr 17 14:19:49 2025
TYPE : TOUR
DIMENSION : 33
TOUR_SECTION
1
2
3
4
5
6
7
8
9
10
11
12
13
26
27
28
29
14
15
16
17
18
19
20
30
31
32
33
21
22
23
24
25
-1
EOF
